(set-logic QF_S)
(declare-fun var0 () String)
(declare-fun var1 () Int)
(declare-fun var2 () Bool)
(declare-fun var3 () String)
(declare-fun var4 () Int)
(declare-fun var5 () Bool)
(declare-fun var6 () String)
(declare-fun var7 () Int)
(declare-fun var8 () Bool)
(assert (< (str.len var0) (str.len var3)))
(assert (str.prefixof (str.replace (str.substr var6 var4 var4) (str.replace "(cP3a*k>t>" var3 var0) (str.replace var0 var3 "v&97S]}v:l")) (str.replace (str.replace var6 var6 var3) (str.at var0 var1) (str.at var6 var4))))
(assert (str.suffixof (str.at var6 var4) (str.substr var6 var4 10)))
(assert (str.prefixof var3 "0(wkx@ETVc"))
(check-sat)